dates = {'2022-03-04','2022-03-05','2022-03-06','2022-03-07','2022-03-08','2022-03-09','2022-03-10','2022-03-11','2022-03-12','2022-03-13'};

daysOfWeek = [Friday,Saturday,Sunday,Monday,Tuesday,Wednesday,Thursday,Friday,Saturday,Sunday];

% For this week, how many people will be here.
numPeople = [125,125,125,117,122,121,109,109,109,109];

% Physical workers need 50 to 100 % more nutrients per day.
numPhysicalWorkers = [33.5,33.5,33.5,33.5,32.0,32.0,31.0,28.0,28.0,28.0];

% Males need +25% more nutrients per day.
numMen = [100,100,100,100,100,100,99,90,90,90];

% Num people who do not eat categories. contains = {none, meat, milk, gluten, egg, nut, seed, sugars}
numRefusals = [| 0,6,8,1,4,0,2,0 | 0,6,8,1,4,0,2,0 | 0,6,8,1,4,0,2,0 | 0,9,3,0,5,2,0,0 | 0,0,0,0,4,0,0,1 | 0,0,0,5,0,5,1,6 | 0,0,1,2,1,1,0,0 | 0,0,1,2,1,1,0,0 | 0,0,1,2,1,1,0,0 | 0,0,1,2,1,1,0,0 |];

